2	20	1	8	29	100	0	0	0	0	0	0
1400	1	0	0	0	0	0	0	0	0	0	0
1400	1	0	0	0	0	0	0	0	0	0	0
175	1	0	117.78	2.29	1	0	0	0	0	0	0
175	1	0	117.78	2.29	1	0	0	0	0	0	0
175	1	0	117.78	2.29	1	0	0	0	0	0	0
175	1	0	117.78	2.29	1	0	0	0	0	0	0
175	1	0	117.78	2.29	1	0	0	0	0	0	0
175	1	0	117.78	2.29	1	0	0	0	0	0	0
175	1	0	117.78	2.29	1	0	0	0	0	0	0
175	1	0	117.78	2.29	1	0	0	0	0	0	0
175	1	0	117.78	2.29	1	0	0	0	0	0	0
175	1	0	117.78	2.29	1	0	0	0	0	0	0
175	1	0	117.78	2.29	1	0	0	0	0	0	0
175	1	0	117.78	2.29	1	0	0	0	0	0	0
175	1	0	117.78	2.29	1	0	0	0	0	0	0
175	1	0	117.78	2.29	1	0	0	0	0	0	0
175	1	0	117.78	2.29	1	0	0	0	0	0	0
175	1	0	117.78	2.29	1	0	0	0	0	0	0
175	1	0	117.78	2.29	1	0	0	0	0	0	0
175	1	0	117.78	2.29	1	0	0	0	0	0	0
175	1	0	117.78	2.29	1	0	0	0	0	0	0
175	1	0	117.78	2.29	1	0	0	0	0	0	0
50	150	0	0	0	0	3390	0	0	99999	0	0
25	25	0	0	0	0	3390	0	0	99999	0	0
50	25	0	0	0	0	3390	0	0	99999	0	0
75	25	0	0	0	0	3390	0	0	99999	0	0
25	50	0	0	0	0	3390	0	0	99999	0	0
75	50	0	0	0	0	3390	0	0	99999	0	0
25	75	0	0	0	0	3390	0	0	99999	0	0
50	75	0	0	0	0	3390	0	0	99999	0	0
75	75	0	0	0	0	3390	0	0	99999	0	0
25	25	0	0	0	0	3390	0	0	0	0	0
50	25	0	0	0	0	3390	0	0	0	0	0
75	25	0	0	0	0	3390	0	0	0	0	0
25	50	0	0	0	0	3390	0	0	0	0	0
75	50	0	0	0	0	3390	0	0	0	0	0
25	75	0	0	0	0	3390	0	0	0	0	0
50	75	0	0	0	0	3390	0	0	0	0	0
75	75	0	0	0	0	3390	0	0	0	0	0
40      50      0       0       0       0       1236    0       0       0       0       0
73      52      0       0       0       0       1236    0       0       0       0       0
90      55      0       0       0       0       1236    0       0       0       0       0
55      79      0       0       0       0       1236    0       0       0       0       0
69      89      0       0       0       0       1236    0       0       0       0       0
32      80      0       0       0       0       1236    0       0       0       0       0
39      96      0       0       0       0       1236    0       0       0       0       0
23      80      0       0       0       0       1236    0       0       0       0       0
4	83	0	0	0	0	3390	0	0	0	0	0
18	58	0	0	0	0	3390	0	0	0	0	0
1	56	0	0	0	0	3390	0	0	0	0	0
13	31	0	0	0	0	3390	0	0	0	0	0
-5	38	0	0	0	0	3390	0	0	0	0	0
26	37	0	0	0	0	3390	0	0	0	0	0
28	13	0	0	0	0	3390	0	0	0	0	0
39	31	0	0	0	0	3390	0	0	0	0	0
48	11	0	0	0	0	3390	0	0	0	0	0
59	17	0	0	0	0	3390	0	0	0	0	0
73	23	0	0	0	0	3390	0	0	0	0	0
74	32	0	0	0	0	3390	0	0	0	0	0
90	44	0	0	0	0	3390	0	0	0	0	0
52	75	10	7	3	1007	1327	90	0	0	0	0
45	70	30	19	11	1105	1425	90	0	0	0	0
62	69	10	9	1	151	471	90	0	0	0	0
60	66	10	9	1	127	447	90	0	0	0	0
42	65	10	6	4	1293	1613	90	0	0	0	0
16	42	20	8	12	2565	2885	90	0	0	0	0
58	70	20	17	3	245	565	90	0	0	0	0
34	60	20	11	9	113	433	90	0	0	0	0
28	70	10	4	6	239	559	90	0	0	0	0
35	66	10	5	5	118	438	90	0	0	0	0
35	69	10	5	5	142	462	90	0	0	0	0
25	85	20	6	14	529	849	90	0	0	0	0
22	75	30	9	21	337	657	90	0	0	0	0
22	85	10	3	7	622	942	90	0	0	0	0
20	80	40	10	30	432	752	90	0	0	0	0
20	85	40	9	31	714	1034	90	0	0	0	0
18	75	20	5	15	999	1319	90	0	0	0	0
15	75	20	4	16	906	1226	90	0	0	0	0
15	80	10	2	8	811	1131	90	0	0	0	0
30	50	10	6	4	3041	3361	90	0	0	0	0
30	56	20	11	9	3069	3389	90	0	0	0	0
28	52	20	11	9	3068	3388	90	0	0	0	0
14	66	10	2	8	1197	1517	90	0	0	0	0
25	50	10	5	5	2946	3266	90	0	0	0	0
22	66	40	13	27	1099	1419	90	0	0	0	0
8	62	10	1	9	1295	1615	90	0	0	0	0
23	52	10	4	6	2853	3173	90	0	0	0	0
4	55	20	1	19	1614	1934	90	0	0	0	0
20	50	10	4	6	2663	2983	90	0	0	0	0
20	55	10	4	6	2758	3078	90	0	0	0	0
10	35	20	6	14	2281	2601	90	0	0	0	0
10	40	30	8	22	2468	2788	90	0	0	0	0
8	40	40	8	32	2376	2696	90	0	0	0	0
8	45	20	4	16	1715	2035	90	0	0	0	0
5	35	10	1	9	2186	2506	90	0	0	0	0
5	45	10	1	9	1808	2128	90	0	0	0	0
2	40	20	1	19	2090	2410	90	0	0	0	0
0	40	30	0	30	1998	2318	90	0	0	0	0
0	45	20	0	20	1903	2223	90	0	0	0	0
36	18	10	5	5	989	1309	90	0	0	0	0
35	32	10	9	1	141	461	90	0	0	0	0
33	32	20	19	1	233	553	90	0	0	0	0
33	35	10	9	1	118	438	90	0	0	0	0
32	20	10	6	4	895	1215	90	0	0	0	0
30	30	10	10	0	703	1023	90	0	0	0	0
34	25	30	22	8	799	1119	90	0	0	0	0
30	35	10	9	1	328	648	90	0	0	0	0
36	40	10	9	1	112	432	90	0	0	0	0
48	20	10	4	6	1980	2300	90	0	0	0	0
26	32	10	8	2	516	836	90	0	0	0	0
25	30	10	8	2	608	928	90	0	0	0	0
25	35	10	7	3	423	743	90	0	0	0	0
44	5	20	2	18	1692	2012	90	0	0	0	0
42	10	40	10	30	1787	2107	90	0	0	0	0
42	15	10	4	6	1882	2202	90	0	0	0	0
40	5	30	4	26	1598	1918	90	0	0	0	0
38	15	40	16	24	1222	1542	90	0	0	0	0
38	5	30	4	26	1506	1826	90	0	0	0	0
38	10	10	3	7	1317	1637	90	0	0	0	0
35	5	20	3	17	1413	1733	90	0	0	0	0
50	30	10	6	4	2360	2680	90	0	0	0	0
50	35	20	14	6	2641	2961	90	0	0	0	0
50	40	50	40	10	1931	2251	90	0	0	0	0
48	30	10	6	4	2268	2588	90	0	0	0	0
44	25	10	6	4	2077	2397	90	0	0	0	0
47	35	10	7	3	2734	3054	90	0	0	0	0
47	40	10	9	1	2024	2344	90	0	0	0	0
42	30	10	7	3	2172	2492	90	0	0	0	0
45	35	10	8	2	2826	3146	90	0	0	0	0
95	30	30	9	21	1056	1376	90	0	0	0	0
95	35	20	7	13	961	1281	90	0	0	0	0
53	30	10	6	4	2453	2773	90	0	0	0	0
92	30	10	3	7	1149	1469	90	0	0	0	0
53	35	50	33	17	2548	2868	90	0	0	0	0
45	65	20	14	6	1200	1520	90	0	0	0	0
90	35	10	4	6	866	1186	90	0	0	0	0
72	45	10	6	4	1635	1955	90	0	0	0	0
78	40	20	10	10	1537	1857	90	0	0	0	0
87	30	10	3	7	1343	1663	90	0	0	0	0
85	25	10	3	7	1248	1568	90	0	0	0	0
85	35	30	12	18	1438	1758	90	0	0	0	0
75	55	20	15	5	529	849	90	0	0	0	0
72	55	10	8	2	436	756	90	0	0	0	0
70	58	20	17	3	342	662	90	0	0	0	0
86	46	30	16	14	764	1084	90	0	0	0	0
66	55	10	8	2	247	567	90	0	0	0	0
64	46	20	14	6	1733	2053	90	0	0	0	0
65	60	30	28	2	152	472	90	0	0	0	0
56	64	10	9	1	123	443	90	0	0	0	0
60	55	10	9	1	122	442	90	0	0	0	0
60	60	10	10	0	124	444	90	0	0	0	0
67	85	20	16	4	624	944	90	0	0	0	0
42	58	40	29	11	1390	1710	90	0	0	0	0
65	82	10	8	2	530	850	90	0	0	0	0
62	80	30	23	7	437	757	90	0	0	0	0
62	40	10	6	4	1829	2149	90	0	0	0	0
60	85	30	21	9	721	1041	90	0	0	0	0
58	75	20	15	5	340	660	90	0	0	0	0
55	80	10	7	3	911	1231	90	0	0	0	0
55	85	20	13	7	816	1136	90	0	0	0	0
